p edge 30 111 10
v 2 3 5
v 4 4 6 26 29
v 3 1 2 12
v 4 8 11 16 20
v 2 23 25
v 3 7 17 21
v 3 15 18 24
v 3 9 14 30
v 2 22 27
v 4 10 13 19 28
e 1 8
e 1 10
e 1 11
e 1 13
e 1 16
e 1 18
e 1 22
e 1 27
e 2 4
e 2 20
e 2 21
e 2 22
e 2 23
e 2 25
e 3 14
e 3 18
e 3 19
e 3 21
e 3 30
e 4 5
e 4 7
e 4 9
e 4 10
e 4 17
e 4 21
e 4 22
e 4 27
e 4 28
e 5 10
e 5 11
e 5 14
e 5 15
e 5 20
e 5 24
e 5 25
e 6 11
e 6 14
e 6 16
e 6 17
e 6 23
e 6 30
e 7 15
e 7 24
e 7 26
e 7 27
e 8 14
e 8 16
e 8 18
e 8 19
e 8 26
e 8 29
e 8 30
e 9 10
e 9 11
e 9 13
e 9 14
e 9 15
e 9 19
e 9 25
e 10 11
e 10 13
e 10 20
e 10 21
e 10 22
e 10 27
e 11 12
e 11 13
e 11 15
e 11 20
e 11 29
e 11 30
e 12 16
e 12 22
e 12 23
e 13 14
e 13 17
e 13 20
e 13 24
e 13 27
e 14 20
e 14 21
e 14 22
e 14 24
e 14 27
e 15 18
e 15 19
e 15 21
e 15 22
e 15 28
e 16 19
e 16 20
e 16 23
e 17 20
e 17 21
e 17 26
e 17 29
e 17 30
e 18 26
e 19 25
e 19 26
e 19 27
e 19 28
e 19 30
e 20 23
e 20 25
e 20 29
e 20 30
e 21 26
e 22 23
e 27 30
e 29 30
